p cnf 12 50 
-9 1 -5 0
-6 12 10 0
8 3 -2 0
8 -1 9 0
12 -6 3 0
3 5 -6 0
10 -12 -9 0
-3 12 -4 0
6 -2 -11 0
-11 1 3 0
-11 -9 3 0
6 -9 -11 0
-3 11 2 0
1 -12 -3 0
-11 -12 -3 0
11 -6 -8 0
7 3 -6 0
-2 -9 -5 0
-2 5 7 0
4 -1 10 0
9 -5 -2 0
-11 5 4 0
-9 5 -7 0
12 3 5 0
-1 -8 -12 0
-2 11 9 0
-2 -3 -8 0
5 11 8 0
9 -11 -3 0
6 -11 5 0
-11 2 7 0
-8 -4 9 0
-5 -1 -10 0
-8 5 12 0
3 8 -9 0
-3 9 6 0
5 -4 -10 0
-11 -4 -7 0
-1 -9 -12 0
7 -2 -5 0
11 9 5 0
-12 6 9 0
-10 1 -2 0
12 8 -3 0
5 3 -7 0
7 -5 -9 0
1 7 -2 0
-11 -1 -5 0
2 7 4 0
-3 12 -6 0
